nbGenes = 10;
preference = [[0 22 36 91 53 17 89 50 76 10 ]
[78 0 37 48 5 7 45 7 95 41 ]
[64 63 0 54 56 88 15 10 40 17 ]
[9 52 46 0 39 20 60 97 50 5 ]
[47 95 44 61 0 48 65 17 77 22 ]
[83 93 12 80 52 0 80 67 58 69 ]
[11 55 85 40 35 20 0 25 77 40 ]
[50 93 90 3 83 33 75 0 6 62 ]
[24 5 60 50 23 42 23 94 0 96 ]
[90 59 83 95 78 31 60 38 4 0 ]
];
